(set-info :smt-lib-version 2.6)
(set-logic QF_NIA)
(set-info :source |
Generated by: Cristina Borralleras, Daniel Larraz, Albert Oliveras, Enric Rodriguez-Carbonell, Albert Rubio
Generated on: 2017-04-27
Generator: VeryMax
Application: Termination proving
Target solver: barcelogic
|)
(set-info :license "https://creativecommons.org/licenses/by/4.0/")
(set-info :category "industrial")
(set-info :status unsat)
(declare-fun Nl17arg11 () Int)
(declare-fun Nl17arg21 () Int)
(declare-fun Nl17arg31 () Int)
(declare-fun Nl17arg41 () Int)
(declare-fun Nl17arg51 () Int)
(declare-fun Nl17arg61 () Int)
(declare-fun Nl17arg71 () Int)
(declare-fun Nl17arg81 () Int)
(declare-fun Nl17arg91 () Int)
(declare-fun Nl18arg11 () Int)
(declare-fun Nl18arg21 () Int)
(declare-fun Nl18arg31 () Int)
(declare-fun Nl18arg41 () Int)
(declare-fun Nl18arg51 () Int)
(declare-fun Nl18arg61 () Int)
(declare-fun Nl18arg71 () Int)
(declare-fun Nl18arg81 () Int)
(declare-fun Nl18arg91 () Int)
(declare-fun lam0n0 () Int)
(declare-fun lam0n1 () Int)
(declare-fun lam0n2 () Int)
(declare-fun lam0n3 () Int)
(declare-fun lam0n4 () Int)
(declare-fun lam0n5 () Int)
(declare-fun lam0n6 () Int)
(declare-fun lam0n7 () Int)
(declare-fun lam0n8 () Int)
(declare-fun lam0n9 () Int)
(declare-fun lam0n10 () Int)
(declare-fun lam0n11 () Int)
(declare-fun lam0n12 () Int)
(declare-fun Nl17CT1 () Int)
(declare-fun lam1n0 () Int)
(declare-fun lam1n1 () Int)
(declare-fun lam1n2 () Int)
(declare-fun lam1n3 () Int)
(declare-fun lam1n4 () Int)
(declare-fun lam1n5 () Int)
(declare-fun lam1n6 () Int)
(declare-fun lam1n7 () Int)
(declare-fun lam1n8 () Int)
(declare-fun lam1n9 () Int)
(declare-fun lam1n10 () Int)
(declare-fun lam1n11 () Int)
(declare-fun lam1n12 () Int)
(declare-fun lam2n0 () Int)
(declare-fun lam2n1 () Int)
(declare-fun lam2n2 () Int)
(declare-fun lam2n3 () Int)
(declare-fun lam2n4 () Int)
(declare-fun lam2n5 () Int)
(declare-fun lam2n6 () Int)
(declare-fun lam2n7 () Int)
(declare-fun lam2n8 () Int)
(declare-fun lam2n9 () Int)
(declare-fun lam2n10 () Int)
(declare-fun lam3n0 () Int)
(declare-fun lam3n1 () Int)
(declare-fun lam3n2 () Int)
(declare-fun lam3n3 () Int)
(declare-fun lam3n4 () Int)
(declare-fun lam3n5 () Int)
(declare-fun lam3n6 () Int)
(declare-fun lam3n7 () Int)
(declare-fun lam3n8 () Int)
(declare-fun lam3n9 () Int)
(declare-fun lam3n10 () Int)
(declare-fun Nl18CT1 () Int)
(declare-fun lam4n0 () Int)
(declare-fun lam4n1 () Int)
(declare-fun lam4n2 () Int)
(declare-fun lam4n3 () Int)
(declare-fun lam4n4 () Int)
(declare-fun lam4n5 () Int)
(declare-fun lam4n6 () Int)
(declare-fun lam4n7 () Int)
(declare-fun lam4n8 () Int)
(declare-fun lam5n0 () Int)
(declare-fun lam5n1 () Int)
(declare-fun lam5n2 () Int)
(declare-fun lam5n3 () Int)
(declare-fun lam5n4 () Int)
(declare-fun lam5n5 () Int)
(declare-fun lam5n6 () Int)
(declare-fun lam5n7 () Int)
(declare-fun lam5n8 () Int)
(declare-fun lam6n0 () Int)
(declare-fun lam6n1 () Int)
(declare-fun lam6n2 () Int)
(declare-fun lam6n3 () Int)
(declare-fun lam6n4 () Int)
(declare-fun lam6n5 () Int)
(declare-fun lam6n6 () Int)
(declare-fun lam6n7 () Int)
(declare-fun lam6n8 () Int)
(declare-fun lam6n9 () Int)
(declare-fun lam6n10 () Int)
(declare-fun lam6n11 () Int)
(declare-fun lam6n12 () Int)
(declare-fun lam6n13 () Int)
(declare-fun lam6n14 () Int)
(declare-fun lam7n0 () Int)
(declare-fun lam7n1 () Int)
(declare-fun lam7n2 () Int)
(declare-fun lam7n3 () Int)
(declare-fun lam7n4 () Int)
(declare-fun lam7n5 () Int)
(declare-fun lam7n6 () Int)
(declare-fun lam7n7 () Int)
(declare-fun lam7n8 () Int)
(declare-fun lam7n9 () Int)
(declare-fun lam7n10 () Int)
(declare-fun lam7n11 () Int)
(declare-fun lam7n12 () Int)
(declare-fun lam7n13 () Int)
(declare-fun lam7n14 () Int)
(declare-fun lam10n0 () Int)
(declare-fun lam10n1 () Int)
(declare-fun lam10n2 () Int)
(declare-fun lam10n3 () Int)
(declare-fun lam10n4 () Int)
(declare-fun lam10n5 () Int)
(declare-fun lam10n6 () Int)
(declare-fun lam10n7 () Int)
(declare-fun lam10n8 () Int)
(declare-fun lam10n9 () Int)
(declare-fun lam10n10 () Int)
(declare-fun lam10n11 () Int)
(declare-fun lam10n12 () Int)
(declare-fun RFN1_CT () Int)
(declare-fun RFN1_arg1 () Int)
(declare-fun RFN1_arg2 () Int)
(declare-fun RFN1_arg3 () Int)
(declare-fun RFN1_arg5 () Int)
(declare-fun RFN1_arg6 () Int)
(declare-fun RFN1_arg7 () Int)
(declare-fun RFN1_arg8 () Int)
(declare-fun RFN1_arg9 () Int)
(declare-fun RFN1_arg4 () Int)
(declare-fun lam13n0 () Int)
(declare-fun lam13n1 () Int)
(declare-fun lam13n2 () Int)
(declare-fun lam13n3 () Int)
(declare-fun lam13n4 () Int)
(declare-fun lam13n5 () Int)
(declare-fun lam13n6 () Int)
(declare-fun lam13n7 () Int)
(declare-fun lam13n8 () Int)
(declare-fun lam13n9 () Int)
(declare-fun lam13n10 () Int)
(declare-fun lam16n0 () Int)
(declare-fun lam16n1 () Int)
(declare-fun lam16n2 () Int)
(declare-fun lam16n3 () Int)
(declare-fun lam16n4 () Int)
(declare-fun lam16n5 () Int)
(declare-fun lam16n6 () Int)
(declare-fun lam16n7 () Int)
(declare-fun lam16n8 () Int)
(declare-fun lam19n0 () Int)
(declare-fun lam19n1 () Int)
(declare-fun lam19n2 () Int)
(declare-fun lam19n3 () Int)
(declare-fun lam19n4 () Int)
(declare-fun lam19n5 () Int)
(declare-fun lam19n6 () Int)
(declare-fun lam19n7 () Int)
(declare-fun lam19n8 () Int)
(declare-fun lam19n9 () Int)
(declare-fun lam19n10 () Int)
(declare-fun lam19n11 () Int)
(declare-fun lam19n12 () Int)
(declare-fun lam19n13 () Int)
(declare-fun lam19n14 () Int)
(declare-fun lam11n0 () Int)
(declare-fun lam11n1 () Int)
(declare-fun lam11n2 () Int)
(declare-fun lam11n3 () Int)
(declare-fun lam11n4 () Int)
(declare-fun lam11n5 () Int)
(declare-fun lam11n6 () Int)
(declare-fun lam11n7 () Int)
(declare-fun lam11n8 () Int)
(declare-fun lam11n9 () Int)
(declare-fun lam11n10 () Int)
(declare-fun lam12n0 () Int)
(declare-fun lam12n1 () Int)
(declare-fun lam12n2 () Int)
(declare-fun lam12n3 () Int)
(declare-fun lam12n4 () Int)
(declare-fun lam12n5 () Int)
(declare-fun lam12n6 () Int)
(declare-fun lam12n7 () Int)
(declare-fun lam12n8 () Int)
(declare-fun lam12n9 () Int)
(declare-fun lam12n10 () Int)
(declare-fun lam20n0 () Int)
(declare-fun lam20n1 () Int)
(declare-fun lam20n2 () Int)
(declare-fun lam20n3 () Int)
(declare-fun lam20n4 () Int)
(declare-fun lam20n5 () Int)
(declare-fun lam20n6 () Int)
(declare-fun lam20n7 () Int)
(declare-fun lam20n8 () Int)
(declare-fun lam20n9 () Int)
(declare-fun lam20n10 () Int)
(assert ( and ( <= ( - 1 ) Nl17arg11 ) ( <= Nl17arg11 1 ) ( <= ( - 1 ) Nl17arg21 ) ( <= Nl17arg21 1 ) ( <= ( - 1 ) Nl17arg31 ) ( <= Nl17arg31 1 ) ( <= ( - 1 ) Nl17arg41 ) ( <= Nl17arg41 1 ) ( <= ( - 1 ) Nl17arg51 ) ( <= Nl17arg51 1 ) ( <= ( - 1 ) Nl17arg61 ) ( <= Nl17arg61 1 ) ( <= ( - 1 ) Nl17arg71 ) ( <= Nl17arg71 1 ) ( <= ( - 1 ) Nl17arg81 ) ( <= Nl17arg81 1 ) ( <= ( - 1 ) Nl17arg91 ) ( <= Nl17arg91 1 ) ( <= ( - 1 ) Nl18arg11 ) ( <= Nl18arg11 1 ) ( <= ( - 1 ) Nl18arg21 ) ( <= Nl18arg21 1 ) ( <= ( - 1 ) Nl18arg31 ) ( <= Nl18arg31 1 ) ( <= ( - 1 ) Nl18arg41 ) ( <= Nl18arg41 1 ) ( <= ( - 1 ) Nl18arg51 ) ( <= Nl18arg51 1 ) ( <= ( - 1 ) Nl18arg61 ) ( <= Nl18arg61 1 ) ( <= ( - 1 ) Nl18arg71 ) ( <= Nl18arg71 1 ) ( <= ( - 1 ) Nl18arg81 ) ( <= Nl18arg81 1 ) ( <= ( - 1 ) Nl18arg91 ) ( <= Nl18arg91 1 ) ))
(assert ( or ( and ( >= lam0n0 0 ) ( >= lam0n1 0 ) ( >= lam0n2 0 ) ( >= lam0n3 0 ) ( >= lam0n4 0 ) ( >= lam0n5 0 ) ( >= lam0n6 0 ) ( >= lam0n7 0 ) ( >= lam0n8 0 ) ( >= lam0n9 0 ) ( >= lam0n10 0 ) ( >= lam0n11 0 ) ( >= lam0n12 0 ) ( > ( + ( * ( - 1 ) lam0n0 ) ( * ( - 1 ) lam0n1 ) ( * 2 lam0n5 ) ( * 3 lam0n6 ) ( * 3 lam0n7 ) ( * 3 lam0n8 ) ( * 95 lam0n9 ) ( * 50001 lam0n10 ) ( * 50001 lam0n11 ) ( * Nl17CT1 lam0n12 ) ( - 1 ) ) 0 ) ( = ( + ( * ( - 1 ) lam0n0 ) ( * ( - 1 ) lam0n2 ) ( * ( - 1 ) lam0n6 ) ( * 1 lam0n10 ) ( * Nl17arg11 lam0n12 ) ) 0 ) ( = ( + ( * 1 lam0n0 ) ( * ( - 1 ) lam0n1 ) ( * 1 lam0n5 ) ( * ( - 1 ) lam0n10 ) ( * ( - 1 ) lam0n11 ) ( * Nl17arg21 lam0n12 ) ) 0 ) ( = ( + ( * 1 lam0n1 ) ( * ( - 1 ) lam0n3 ) ( * Nl17arg31 lam0n12 ) ) 0 ) ( = ( + ( * ( - 1 ) lam0n0 ) ( * ( - 1 ) lam0n1 ) ( * 1 lam0n3 ) ( * ( - 1 ) lam0n5 ) ( * ( - 1 ) lam0n9 ) ( * Nl17arg41 lam0n12 ) ) 0 ) ( = ( * Nl17arg51 lam0n12 ) 0 ) ( = ( * Nl17arg61 lam0n12 ) 0 ) ( = ( * Nl17arg71 lam0n12 ) 0 ) ( = ( * Nl17arg81 lam0n12 ) 0 ) ( = ( * Nl17arg91 lam0n12 ) 0 ) ( = ( + ( * 1 lam0n4 ) ( * ( - 1 ) lam0n7 ) ) 0 ) ( = ( + ( * 1 lam0n2 ) ( * ( - 1 ) lam0n4 ) ( * ( - 1 ) lam0n8 ) ) 0 ) ) ( and ( >= lam1n0 0 ) ( >= lam1n1 0 ) ( >= lam1n2 0 ) ( >= lam1n3 0 ) ( >= lam1n4 0 ) ( >= lam1n5 0 ) ( >= lam1n6 0 ) ( >= lam1n7 0 ) ( >= lam1n8 0 ) ( >= lam1n9 0 ) ( >= lam1n10 0 ) ( >= lam1n11 0 ) ( >= lam1n12 0 ) ( > ( + ( * ( - 1 ) lam1n0 ) ( * ( - 1 ) lam1n1 ) ( * 2 lam1n5 ) ( * 3 lam1n6 ) ( * 3 lam1n7 ) ( * 3 lam1n8 ) ( * 95 lam1n9 ) ( * 50001 lam1n10 ) ( * 50001 lam1n11 ) ( * Nl17CT1 lam1n12 ) ( - 1 ( + ( + ( + ( + ( + ( + ( + ( + Nl17CT1 ( * Nl17arg11 0 ) ) ( * Nl17arg21 1 ) ) ( * Nl17arg31 0 ) ) ( * Nl17arg51 0 ) ) ( * Nl17arg61 0 ) ) ( * Nl17arg71 0 ) ) ( * Nl17arg81 0 ) ) ( * Nl17arg91 0 ) ) ) ) 0 ) ( = ( + ( * ( - 1 ) lam1n0 ) ( * ( - 1 ) lam1n2 ) ( * ( - 1 ) lam1n6 ) ( * 1 lam1n10 ) ( * Nl17arg11 lam1n12 ) ) 0 ) ( = ( + ( * 1 lam1n0 ) ( * ( - 1 ) lam1n1 ) ( * 1 lam1n5 ) ( * ( - 1 ) lam1n10 ) ( * ( - 1 ) lam1n11 ) ( * Nl17arg21 lam1n12 ) ( - ( + 0 ( * Nl17arg21 1 ) ) ) ) 0 ) ( = ( + ( * 1 lam1n1 ) ( * ( - 1 ) lam1n3 ) ( * Nl17arg31 lam1n12 ) ) 0 ) ( = ( + ( * ( - 1 ) lam1n0 ) ( * ( - 1 ) lam1n1 ) ( * 1 lam1n3 ) ( * ( - 1 ) lam1n5 ) ( * ( - 1 ) lam1n9 ) ( * Nl17arg41 lam1n12 ) ( - ( + 0 Nl17arg41 ) ) ) 0 ) ( = ( * Nl17arg51 lam1n12 ) 0 ) ( = ( * Nl17arg61 lam1n12 ) 0 ) ( = ( * Nl17arg71 lam1n12 ) 0 ) ( = ( * Nl17arg81 lam1n12 ) 0 ) ( = ( * Nl17arg91 lam1n12 ) 0 ) ( = ( + ( * 1 lam1n4 ) ( * ( - 1 ) lam1n7 ) ( - ( + 0 ( * Nl17arg11 1 ) ) ) ) 0 ) ( = ( - ( + 0 ( * Nl17arg51 1 ) ) ) 0 ) ( = ( - ( + 0 ( * Nl17arg61 1 ) ) ) 0 ) ( = ( - ( + 0 ( * Nl17arg71 1 ) ) ) 0 ) ( = ( - ( + 0 ( * Nl17arg81 1 ) ) ) 0 ) ( = ( - ( + 0 ( * Nl17arg91 1 ) ) ) 0 ) ( = ( + ( * 1 lam1n2 ) ( * ( - 1 ) lam1n4 ) ( * ( - 1 ) lam1n8 ) ) 0 ) ) ))
(assert ( or ( and ( >= lam2n0 0 ) ( >= lam2n1 0 ) ( >= lam2n2 0 ) ( >= lam2n3 0 ) ( >= lam2n4 0 ) ( >= lam2n5 0 ) ( >= lam2n6 0 ) ( >= lam2n7 0 ) ( >= lam2n8 0 ) ( >= lam2n9 0 ) ( >= lam2n10 0 ) ( > ( + ( * 1 lam2n0 ) ( * 1 lam2n1 ) ( * ( - 1 ) lam2n2 ) ( * ( - 1 ) lam2n3 ) ( * 2 lam2n6 ) ( * 3 lam2n7 ) ( * 3 lam2n8 ) ( * 95 lam2n9 ) ( * Nl17CT1 lam2n10 ) ( - 1 ) ) 0 ) ( = ( + ( * ( - 1 ) lam2n2 ) ( * ( - 1 ) lam2n4 ) ( * ( - 1 ) lam2n7 ) ( * Nl17arg11 lam2n10 ) ) 0 ) ( = ( + ( * 1 lam2n2 ) ( * ( - 1 ) lam2n3 ) ( * 1 lam2n6 ) ( * Nl17arg21 lam2n10 ) ) 0 ) ( = ( + ( * 1 lam2n0 ) ( * 1 lam2n1 ) ( * 1 lam2n3 ) ( * Nl17arg31 lam2n10 ) ) 0 ) ( = ( + ( * ( - 1 ) lam2n0 ) ( * ( - 1 ) lam2n2 ) ( * ( - 1 ) lam2n3 ) ( * ( - 1 ) lam2n6 ) ( * ( - 1 ) lam2n9 ) ( * Nl17arg41 lam2n10 ) ) 0 ) ( = ( * Nl17arg51 lam2n10 ) 0 ) ( = ( * Nl17arg61 lam2n10 ) 0 ) ( = ( * Nl17arg71 lam2n10 ) 0 ) ( = ( * Nl17arg81 lam2n10 ) 0 ) ( = ( * Nl17arg91 lam2n10 ) 0 ) ( = ( + ( * 1 lam2n4 ) ( * ( - 1 ) lam2n8 ) ) 0 ) ( = ( + ( * ( - 1 ) lam2n1 ) ( * ( - 1 ) lam2n5 ) ) 0 ) ) ( and ( >= lam3n0 0 ) ( >= lam3n1 0 ) ( >= lam3n2 0 ) ( >= lam3n3 0 ) ( >= lam3n4 0 ) ( >= lam3n5 0 ) ( >= lam3n6 0 ) ( >= lam3n7 0 ) ( >= lam3n8 0 ) ( >= lam3n9 0 ) ( >= lam3n10 0 ) ( > ( + ( * 1 lam3n0 ) ( * 1 lam3n1 ) ( * ( - 1 ) lam3n2 ) ( * ( - 1 ) lam3n3 ) ( * 2 lam3n6 ) ( * 3 lam3n7 ) ( * 3 lam3n8 ) ( * 95 lam3n9 ) ( * Nl17CT1 lam3n10 ) ( - 1 ( + ( + ( + ( + ( + ( + ( + Nl18CT1 ( * Nl18arg11 0 ) ) ( * Nl18arg41 0 ) ) ( * Nl18arg51 0 ) ) ( * Nl18arg61 0 ) ) ( * Nl18arg71 0 ) ) ( * Nl18arg81 0 ) ) ( * Nl18arg91 0 ) ) ) ) 0 ) ( = ( + ( * ( - 1 ) lam3n2 ) ( * ( - 1 ) lam3n4 ) ( * ( - 1 ) lam3n7 ) ( * Nl17arg11 lam3n10 ) ) 0 ) ( = ( + ( * 1 lam3n2 ) ( * ( - 1 ) lam3n3 ) ( * 1 lam3n6 ) ( * Nl17arg21 lam3n10 ) ( - ( + 0 Nl18arg21 ) ) ) 0 ) ( = ( + ( * 1 lam3n0 ) ( * 1 lam3n1 ) ( * 1 lam3n3 ) ( * Nl17arg31 lam3n10 ) ( - ( + 0 Nl18arg31 ) ) ) 0 ) ( = ( + ( * ( - 1 ) lam3n0 ) ( * ( - 1 ) lam3n2 ) ( * ( - 1 ) lam3n3 ) ( * ( - 1 ) lam3n6 ) ( * ( - 1 ) lam3n9 ) ( * Nl17arg41 lam3n10 ) ( - ( + 0 ( * Nl18arg51 1 ) ) ) ) 0 ) ( = ( * Nl17arg51 lam3n10 ) 0 ) ( = ( * Nl17arg61 lam3n10 ) 0 ) ( = ( * Nl17arg71 lam3n10 ) 0 ) ( = ( * Nl17arg81 lam3n10 ) 0 ) ( = ( * Nl17arg91 lam3n10 ) 0 ) ( = ( + ( * 1 lam3n4 ) ( * ( - 1 ) lam3n8 ) ( - ( + 0 ( * Nl18arg11 1 ) ) ) ) 0 ) ( = ( - ( + 0 ( * Nl18arg61 1 ) ) ) 0 ) ( = ( - ( + 0 ( * Nl18arg71 1 ) ) ) 0 ) ( = ( - ( + 0 ( * Nl18arg81 1 ) ) ) 0 ) ( = ( - ( + 0 ( * Nl18arg91 1 ) ) ) 0 ) ( = ( + ( * ( - 1 ) lam3n1 ) ( * ( - 1 ) lam3n5 ) ) 0 ) ) ))
(assert ( or ( and ( >= lam4n0 0 ) ( >= lam4n1 0 ) ( >= lam4n2 0 ) ( >= lam4n3 0 ) ( >= lam4n4 0 ) ( >= lam4n5 0 ) ( >= lam4n6 0 ) ( >= lam4n7 0 ) ( >= lam4n8 0 ) ( > ( + ( * 1 lam4n0 ) ( * 2 lam4n4 ) ( * 3 lam4n5 ) ( * 3 lam4n6 ) ( * 95 lam4n7 ) ( * Nl18CT1 lam4n8 ) ( - 1 ) ) 0 ) ( = ( + ( * ( - 1 ) lam4n0 ) ( * ( - 1 ) lam4n1 ) ( * ( - 1 ) lam4n5 ) ( * Nl18arg11 lam4n8 ) ) 0 ) ( = ( + ( * ( - 1 ) lam4n2 ) ( * 1 lam4n4 ) ( * Nl18arg21 lam4n8 ) ) 0 ) ( = ( + ( * 1 lam4n2 ) ( * Nl18arg31 lam4n8 ) ) 0 ) ( = ( + ( * ( - 1 ) lam4n3 ) ( * Nl18arg41 lam4n8 ) ) 0 ) ( = ( + ( * ( - 1 ) lam4n0 ) ( * ( - 1 ) lam4n2 ) ( * 1 lam4n3 ) ( * ( - 1 ) lam4n4 ) ( * ( - 1 ) lam4n7 ) ( * Nl18arg51 lam4n8 ) ) 0 ) ( = ( * Nl18arg61 lam4n8 ) 0 ) ( = ( * Nl18arg71 lam4n8 ) 0 ) ( = ( * Nl18arg81 lam4n8 ) 0 ) ( = ( * Nl18arg91 lam4n8 ) 0 ) ( = ( + ( * 1 lam4n1 ) ( * ( - 1 ) lam4n6 ) ) 0 ) ) ( and ( >= lam5n0 0 ) ( >= lam5n1 0 ) ( >= lam5n2 0 ) ( >= lam5n3 0 ) ( >= lam5n4 0 ) ( >= lam5n5 0 ) ( >= lam5n6 0 ) ( >= lam5n7 0 ) ( >= lam5n8 0 ) ( > ( + ( * 1 lam5n0 ) ( * 2 lam5n4 ) ( * 3 lam5n5 ) ( * 3 lam5n6 ) ( * 95 lam5n7 ) ( * Nl18CT1 lam5n8 ) ( - 1 ( + ( + ( + ( + ( + ( + ( + ( + Nl17CT1 ( * Nl17arg11 0 ) ) ( * Nl17arg31 1 ) ) ( * Nl17arg41 0 ) ) ( * Nl17arg51 0 ) ) ( * Nl17arg61 0 ) ) ( * Nl17arg71 0 ) ) ( * Nl17arg81 0 ) ) ( * Nl17arg91 0 ) ) ) ) 0 ) ( = ( + ( * ( - 1 ) lam5n0 ) ( * ( - 1 ) lam5n1 ) ( * ( - 1 ) lam5n5 ) ( * Nl18arg11 lam5n8 ) ) 0 ) ( = ( + ( * ( - 1 ) lam5n2 ) ( * 1 lam5n4 ) ( * Nl18arg21 lam5n8 ) ( - ( + 0 Nl17arg21 ) ) ) 0 ) ( = ( + ( * 1 lam5n2 ) ( * Nl18arg31 lam5n8 ) ( - ( + 0 ( * Nl17arg31 1 ) ) ) ) 0 ) ( = ( + ( * ( - 1 ) lam5n3 ) ( * Nl18arg41 lam5n8 ) ) 0 ) ( = ( + ( * ( - 1 ) lam5n0 ) ( * ( - 1 ) lam5n2 ) ( * 1 lam5n3 ) ( * ( - 1 ) lam5n4 ) ( * ( - 1 ) lam5n7 ) ( * Nl18arg51 lam5n8 ) ( - ( + 0 ( * Nl17arg41 1 ) ) ) ) 0 ) ( = ( * Nl18arg61 lam5n8 ) 0 ) ( = ( * Nl18arg71 lam5n8 ) 0 ) ( = ( * Nl18arg81 lam5n8 ) 0 ) ( = ( * Nl18arg91 lam5n8 ) 0 ) ( = ( + ( * 1 lam5n1 ) ( * ( - 1 ) lam5n6 ) ( - ( + 0 ( * Nl17arg11 1 ) ) ) ) 0 ) ( = ( - ( + 0 ( * Nl17arg51 1 ) ) ) 0 ) ( = ( - ( + 0 ( * Nl17arg61 1 ) ) ) 0 ) ( = ( - ( + 0 ( * Nl17arg71 1 ) ) ) 0 ) ( = ( - ( + 0 ( * Nl17arg81 1 ) ) ) 0 ) ( = ( - ( + 0 ( * Nl17arg91 1 ) ) ) 0 ) ) ))
(assert ( or ( and ( >= lam6n0 0 ) ( >= lam6n1 0 ) ( >= lam6n2 0 ) ( >= lam6n3 0 ) ( >= lam6n4 0 ) ( >= lam6n5 0 ) ( >= lam6n6 0 ) ( >= lam6n7 0 ) ( >= lam6n8 0 ) ( >= lam6n9 0 ) ( >= lam6n10 0 ) ( >= lam6n11 0 ) ( >= lam6n12 0 ) ( >= lam6n13 0 ) ( >= lam6n14 0 ) ( > ( + ( * 1 lam6n0 ) ( * 1 lam6n1 ) ( * 1 lam6n2 ) ( * 1 lam6n3 ) ( * 1 lam6n4 ) ( * 2 lam6n10 ) ( * 3 lam6n11 ) ( * 3 lam6n12 ) ( * 95 lam6n13 ) ( * Nl18CT1 lam6n14 ) ( - 1 ) ) 0 ) ( = ( + ( * ( - 1 ) lam6n0 ) ( * ( - 1 ) lam6n5 ) ( * ( - 1 ) lam6n11 ) ( * Nl18arg11 lam6n14 ) ) 0 ) ( = ( + ( * ( - 1 ) lam6n6 ) ( * 1 lam6n10 ) ( * Nl18arg21 lam6n14 ) ) 0 ) ( = ( + ( * 1 lam6n1 ) ( * 1 lam6n2 ) ( * 1 lam6n6 ) ( * Nl18arg31 lam6n14 ) ) 0 ) ( = ( + ( * 1 lam6n3 ) ( * 1 lam6n4 ) ( * Nl18arg41 lam6n14 ) ) 0 ) ( = ( + ( * ( - 1 ) lam6n0 ) ( * ( - 1 ) lam6n3 ) ( * ( - 1 ) lam6n6 ) ( * ( - 1 ) lam6n10 ) ( * ( - 1 ) lam6n13 ) ( * Nl18arg51 lam6n14 ) ) 0 ) ( = ( * Nl18arg61 lam6n14 ) 0 ) ( = ( * Nl18arg71 lam6n14 ) 0 ) ( = ( * Nl18arg81 lam6n14 ) 0 ) ( = ( * Nl18arg91 lam6n14 ) 0 ) ( = ( + ( * 1 lam6n5 ) ( * ( - 1 ) lam6n12 ) ) 0 ) ( = ( + ( * ( - 1 ) lam6n1 ) ( * ( - 1 ) lam6n7 ) ) 0 ) ( = ( + ( * ( - 1 ) lam6n4 ) ( * ( - 1 ) lam6n8 ) ) 0 ) ( = ( + ( * ( - 1 ) lam6n2 ) ( * ( - 1 ) lam6n9 ) ) 0 ) ) ( and ( >= lam7n0 0 ) ( >= lam7n1 0 ) ( >= lam7n2 0 ) ( >= lam7n3 0 ) ( >= lam7n4 0 ) ( >= lam7n5 0 ) ( >= lam7n6 0 ) ( >= lam7n7 0 ) ( >= lam7n8 0 ) ( >= lam7n9 0 ) ( >= lam7n10 0 ) ( >= lam7n11 0 ) ( >= lam7n12 0 ) ( >= lam7n13 0 ) ( >= lam7n14 0 ) ( > ( + ( * 1 lam7n0 ) ( * 1 lam7n1 ) ( * 1 lam7n2 ) ( * 1 lam7n3 ) ( * 1 lam7n4 ) ( * 2 lam7n10 ) ( * 3 lam7n11 ) ( * 3 lam7n12 ) ( * 95 lam7n13 ) ( * Nl18CT1 lam7n14 ) ( - 1 ( + ( + ( + ( + ( + ( + Nl18CT1 ( * Nl18arg11 0 ) ) ( * Nl18arg41 1 ) ) ( * Nl18arg61 0 ) ) ( * Nl18arg71 0 ) ) ( * Nl18arg81 0 ) ) ( * Nl18arg91 0 ) ) ) ) 0 ) ( = ( + ( * ( - 1 ) lam7n0 ) ( * ( - 1 ) lam7n5 ) ( * ( - 1 ) lam7n11 ) ( * Nl18arg11 lam7n14 ) ) 0 ) ( = ( + ( * ( - 1 ) lam7n6 ) ( * 1 lam7n10 ) ( * Nl18arg21 lam7n14 ) ( - ( + 0 Nl18arg21 ) ) ) 0 ) ( = ( + ( * 1 lam7n1 ) ( * 1 lam7n2 ) ( * 1 lam7n6 ) ( * Nl18arg31 lam7n14 ) ( - ( + 0 Nl18arg31 ) ) ) 0 ) ( = ( + ( * 1 lam7n3 ) ( * 1 lam7n4 ) ( * Nl18arg41 lam7n14 ) ( - ( + 0 ( * Nl18arg41 1 ) ) ) ) 0 ) ( = ( + ( * ( - 1 ) lam7n0 ) ( * ( - 1 ) lam7n3 ) ( * ( - 1 ) lam7n6 ) ( * ( - 1 ) lam7n10 ) ( * ( - 1 ) lam7n13 ) ( * Nl18arg51 lam7n14 ) ( - ( + 0 Nl18arg51 ) ) ) 0 ) ( = ( * Nl18arg61 lam7n14 ) 0 ) ( = ( * Nl18arg71 lam7n14 ) 0 ) ( = ( * Nl18arg81 lam7n14 ) 0 ) ( = ( * Nl18arg91 lam7n14 ) 0 ) ( = ( + ( * 1 lam7n5 ) ( * ( - 1 ) lam7n12 ) ( - ( + 0 ( * Nl18arg11 1 ) ) ) ) 0 ) ( = ( - ( + 0 ( * Nl18arg61 1 ) ) ) 0 ) ( = ( - ( + 0 ( * Nl18arg71 1 ) ) ) 0 ) ( = ( - ( + 0 ( * Nl18arg81 1 ) ) ) 0 ) ( = ( - ( + 0 ( * Nl18arg91 1 ) ) ) 0 ) ( = ( + ( * ( - 1 ) lam7n1 ) ( * ( - 1 ) lam7n7 ) ) 0 ) ( = ( + ( * ( - 1 ) lam7n4 ) ( * ( - 1 ) lam7n8 ) ) 0 ) ( = ( + ( * ( - 1 ) lam7n2 ) ( * ( - 1 ) lam7n9 ) ) 0 ) ) ))
(assert ( and ( or ( and ( >= lam0n0 0 ) ( >= lam0n1 0 ) ( >= lam0n2 0 ) ( >= lam0n3 0 ) ( >= lam0n4 0 ) ( >= lam0n5 0 ) ( >= lam0n6 0 ) ( >= lam0n7 0 ) ( >= lam0n8 0 ) ( >= lam0n9 0 ) ( >= lam0n10 0 ) ( >= lam0n11 0 ) ( >= lam0n12 0 ) ( > ( + ( * ( - 1 ) lam0n0 ) ( * ( - 1 ) lam0n1 ) ( * 2 lam0n5 ) ( * 3 lam0n6 ) ( * 3 lam0n7 ) ( * 3 lam0n8 ) ( * 95 lam0n9 ) ( * 50001 lam0n10 ) ( * 50001 lam0n11 ) ( * Nl17CT1 lam0n12 ) ( - 1 ) ) 0 ) ( = ( + ( * ( - 1 ) lam0n0 ) ( * ( - 1 ) lam0n2 ) ( * ( - 1 ) lam0n6 ) ( * 1 lam0n10 ) ( * Nl17arg11 lam0n12 ) ) 0 ) ( = ( + ( * 1 lam0n0 ) ( * ( - 1 ) lam0n1 ) ( * 1 lam0n5 ) ( * ( - 1 ) lam0n10 ) ( * ( - 1 ) lam0n11 ) ( * Nl17arg21 lam0n12 ) ) 0 ) ( = ( + ( * 1 lam0n1 ) ( * ( - 1 ) lam0n3 ) ( * Nl17arg31 lam0n12 ) ) 0 ) ( = ( + ( * ( - 1 ) lam0n0 ) ( * ( - 1 ) lam0n1 ) ( * 1 lam0n3 ) ( * ( - 1 ) lam0n5 ) ( * ( - 1 ) lam0n9 ) ( * Nl17arg41 lam0n12 ) ) 0 ) ( = ( * Nl17arg51 lam0n12 ) 0 ) ( = ( * Nl17arg61 lam0n12 ) 0 ) ( = ( * Nl17arg71 lam0n12 ) 0 ) ( = ( * Nl17arg81 lam0n12 ) 0 ) ( = ( * Nl17arg91 lam0n12 ) 0 ) ( = ( + ( * 1 lam0n4 ) ( * ( - 1 ) lam0n7 ) ) 0 ) ( = ( + ( * 1 lam0n2 ) ( * ( - 1 ) lam0n4 ) ( * ( - 1 ) lam0n8 ) ) 0 ) ) ( and ( >= lam10n0 0 ) ( >= lam10n1 0 ) ( >= lam10n2 0 ) ( >= lam10n3 0 ) ( >= lam10n4 0 ) ( >= lam10n5 0 ) ( >= lam10n6 0 ) ( >= lam10n7 0 ) ( >= lam10n8 0 ) ( >= lam10n9 0 ) ( >= lam10n10 0 ) ( >= lam10n11 0 ) ( >= lam10n12 0 ) ( > ( + ( * ( - 1 ) lam10n0 ) ( * ( - 1 ) lam10n1 ) ( * 2 lam10n5 ) ( * 3 lam10n6 ) ( * 3 lam10n7 ) ( * 3 lam10n8 ) ( * 95 lam10n9 ) ( * 50001 lam10n10 ) ( * 50001 lam10n11 ) ( * Nl17CT1 lam10n12 ) ( - 1 ( - ( + ( + ( + ( + ( + ( + ( + ( + RFN1_CT ( * RFN1_arg1 0 ) ) ( * RFN1_arg2 1 ) ) ( * RFN1_arg3 0 ) ) ( * RFN1_arg5 0 ) ) ( * RFN1_arg6 0 ) ) ( * RFN1_arg7 0 ) ) ( * RFN1_arg8 0 ) ) ( * RFN1_arg9 0 ) ) RFN1_CT ) ) ) 0 ) ( = ( + ( * ( - 1 ) lam10n0 ) ( * ( - 1 ) lam10n2 ) ( * ( - 1 ) lam10n6 ) ( * 1 lam10n10 ) ( * Nl17arg11 lam10n12 ) ( - ( - RFN1_arg1 ) ) ) 0 ) ( = ( + ( * 1 lam10n0 ) ( * ( - 1 ) lam10n1 ) ( * 1 lam10n5 ) ( * ( - 1 ) lam10n10 ) ( * ( - 1 ) lam10n11 ) ( * Nl17arg21 lam10n12 ) ( - ( - ( + 0 ( * RFN1_arg2 1 ) ) RFN1_arg2 ) ) ) 0 ) ( = ( + ( * 1 lam10n1 ) ( * ( - 1 ) lam10n3 ) ( * Nl17arg31 lam10n12 ) ( - ( - RFN1_arg3 ) ) ) 0 ) ( = ( + ( * ( - 1 ) lam10n0 ) ( * ( - 1 ) lam10n1 ) ( * 1 lam10n3 ) ( * ( - 1 ) lam10n5 ) ( * ( - 1 ) lam10n9 ) ( * Nl17arg41 lam10n12 ) ( - ( - ( + 0 RFN1_arg4 ) RFN1_arg4 ) ) ) 0 ) ( = ( + ( * Nl17arg51 lam10n12 ) ( - ( - RFN1_arg5 ) ) ) 0 ) ( = ( + ( * Nl17arg61 lam10n12 ) ( - ( - RFN1_arg6 ) ) ) 0 ) ( = ( + ( * Nl17arg71 lam10n12 ) ( - ( - RFN1_arg7 ) ) ) 0 ) ( = ( + ( * Nl17arg81 lam10n12 ) ( - ( - RFN1_arg8 ) ) ) 0 ) ( = ( + ( * Nl17arg91 lam10n12 ) ( - ( - RFN1_arg9 ) ) ) 0 ) ( = ( + ( * 1 lam10n4 ) ( * ( - 1 ) lam10n7 ) ( - ( + 0 ( * RFN1_arg1 1 ) ) ) ) 0 ) ( = ( - ( + 0 ( * RFN1_arg5 1 ) ) ) 0 ) ( = ( - ( + 0 ( * RFN1_arg6 1 ) ) ) 0 ) ( = ( - ( + 0 ( * RFN1_arg7 1 ) ) ) 0 ) ( = ( - ( + 0 ( * RFN1_arg8 1 ) ) ) 0 ) ( = ( - ( + 0 ( * RFN1_arg9 1 ) ) ) 0 ) ( = ( + ( * 1 lam10n2 ) ( * ( - 1 ) lam10n4 ) ( * ( - 1 ) lam10n8 ) ) 0 ) ) ) ( or ( and ( >= lam2n0 0 ) ( >= lam2n1 0 ) ( >= lam2n2 0 ) ( >= lam2n3 0 ) ( >= lam2n4 0 ) ( >= lam2n5 0 ) ( >= lam2n6 0 ) ( >= lam2n7 0 ) ( >= lam2n8 0 ) ( >= lam2n9 0 ) ( >= lam2n10 0 ) ( > ( + ( * 1 lam2n0 ) ( * 1 lam2n1 ) ( * ( - 1 ) lam2n2 ) ( * ( - 1 ) lam2n3 ) ( * 2 lam2n6 ) ( * 3 lam2n7 ) ( * 3 lam2n8 ) ( * 95 lam2n9 ) ( * Nl17CT1 lam2n10 ) ( - 1 ) ) 0 ) ( = ( + ( * ( - 1 ) lam2n2 ) ( * ( - 1 ) lam2n4 ) ( * ( - 1 ) lam2n7 ) ( * Nl17arg11 lam2n10 ) ) 0 ) ( = ( + ( * 1 lam2n2 ) ( * ( - 1 ) lam2n3 ) ( * 1 lam2n6 ) ( * Nl17arg21 lam2n10 ) ) 0 ) ( = ( + ( * 1 lam2n0 ) ( * 1 lam2n1 ) ( * 1 lam2n3 ) ( * Nl17arg31 lam2n10 ) ) 0 ) ( = ( + ( * ( - 1 ) lam2n0 ) ( * ( - 1 ) lam2n2 ) ( * ( - 1 ) lam2n3 ) ( * ( - 1 ) lam2n6 ) ( * ( - 1 ) lam2n9 ) ( * Nl17arg41 lam2n10 ) ) 0 ) ( = ( * Nl17arg51 lam2n10 ) 0 ) ( = ( * Nl17arg61 lam2n10 ) 0 ) ( = ( * Nl17arg71 lam2n10 ) 0 ) ( = ( * Nl17arg81 lam2n10 ) 0 ) ( = ( * Nl17arg91 lam2n10 ) 0 ) ( = ( + ( * 1 lam2n4 ) ( * ( - 1 ) lam2n8 ) ) 0 ) ( = ( + ( * ( - 1 ) lam2n1 ) ( * ( - 1 ) lam2n5 ) ) 0 ) ) ( and ( >= lam13n0 0 ) ( >= lam13n1 0 ) ( >= lam13n2 0 ) ( >= lam13n3 0 ) ( >= lam13n4 0 ) ( >= lam13n5 0 ) ( >= lam13n6 0 ) ( >= lam13n7 0 ) ( >= lam13n8 0 ) ( >= lam13n9 0 ) ( >= lam13n10 0 ) ( > ( + ( * 1 lam13n0 ) ( * 1 lam13n1 ) ( * ( - 1 ) lam13n2 ) ( * ( - 1 ) lam13n3 ) ( * 2 lam13n6 ) ( * 3 lam13n7 ) ( * 3 lam13n8 ) ( * 95 lam13n9 ) ( * Nl17CT1 lam13n10 ) ( - 1 ( - ( + ( + ( + ( + ( + ( + ( + RFN1_CT ( * RFN1_arg1 0 ) ) ( * RFN1_arg4 0 ) ) ( * RFN1_arg5 0 ) ) ( * RFN1_arg6 0 ) ) ( * RFN1_arg7 0 ) ) ( * RFN1_arg8 0 ) ) ( * RFN1_arg9 0 ) ) RFN1_CT ) ) ) 0 ) ( = ( + ( * ( - 1 ) lam13n2 ) ( * ( - 1 ) lam13n4 ) ( * ( - 1 ) lam13n7 ) ( * Nl17arg11 lam13n10 ) ( - ( - RFN1_arg1 ) ) ) 0 ) ( = ( + ( * 1 lam13n2 ) ( * ( - 1 ) lam13n3 ) ( * 1 lam13n6 ) ( * Nl17arg21 lam13n10 ) ( - ( - ( + 0 RFN1_arg2 ) RFN1_arg2 ) ) ) 0 ) ( = ( + ( * 1 lam13n0 ) ( * 1 lam13n1 ) ( * 1 lam13n3 ) ( * Nl17arg31 lam13n10 ) ( - ( - ( + 0 RFN1_arg3 ) RFN1_arg3 ) ) ) 0 ) ( = ( + ( * ( - 1 ) lam13n0 ) ( * ( - 1 ) lam13n2 ) ( * ( - 1 ) lam13n3 ) ( * ( - 1 ) lam13n6 ) ( * ( - 1 ) lam13n9 ) ( * Nl17arg41 lam13n10 ) ( - ( - ( + 0 ( * RFN1_arg5 1 ) ) RFN1_arg4 ) ) ) 0 ) ( = ( + ( * Nl17arg51 lam13n10 ) ( - ( - RFN1_arg5 ) ) ) 0 ) ( = ( + ( * Nl17arg61 lam13n10 ) ( - ( - RFN1_arg6 ) ) ) 0 ) ( = ( + ( * Nl17arg71 lam13n10 ) ( - ( - RFN1_arg7 ) ) ) 0 ) ( = ( + ( * Nl17arg81 lam13n10 ) ( - ( - RFN1_arg8 ) ) ) 0 ) ( = ( + ( * Nl17arg91 lam13n10 ) ( - ( - RFN1_arg9 ) ) ) 0 ) ( = ( + ( * 1 lam13n4 ) ( * ( - 1 ) lam13n8 ) ( - ( + 0 ( * RFN1_arg1 1 ) ) ) ) 0 ) ( = ( - ( + 0 ( * RFN1_arg6 1 ) ) ) 0 ) ( = ( - ( + 0 ( * RFN1_arg7 1 ) ) ) 0 ) ( = ( - ( + 0 ( * RFN1_arg8 1 ) ) ) 0 ) ( = ( - ( + 0 ( * RFN1_arg9 1 ) ) ) 0 ) ( = ( + ( * ( - 1 ) lam13n1 ) ( * ( - 1 ) lam13n5 ) ) 0 ) ) ) ( or ( and ( >= lam4n0 0 ) ( >= lam4n1 0 ) ( >= lam4n2 0 ) ( >= lam4n3 0 ) ( >= lam4n4 0 ) ( >= lam4n5 0 ) ( >= lam4n6 0 ) ( >= lam4n7 0 ) ( >= lam4n8 0 ) ( > ( + ( * 1 lam4n0 ) ( * 2 lam4n4 ) ( * 3 lam4n5 ) ( * 3 lam4n6 ) ( * 95 lam4n7 ) ( * Nl18CT1 lam4n8 ) ( - 1 ) ) 0 ) ( = ( + ( * ( - 1 ) lam4n0 ) ( * ( - 1 ) lam4n1 ) ( * ( - 1 ) lam4n5 ) ( * Nl18arg11 lam4n8 ) ) 0 ) ( = ( + ( * ( - 1 ) lam4n2 ) ( * 1 lam4n4 ) ( * Nl18arg21 lam4n8 ) ) 0 ) ( = ( + ( * 1 lam4n2 ) ( * Nl18arg31 lam4n8 ) ) 0 ) ( = ( + ( * ( - 1 ) lam4n3 ) ( * Nl18arg41 lam4n8 ) ) 0 ) ( = ( + ( * ( - 1 ) lam4n0 ) ( * ( - 1 ) lam4n2 ) ( * 1 lam4n3 ) ( * ( - 1 ) lam4n4 ) ( * ( - 1 ) lam4n7 ) ( * Nl18arg51 lam4n8 ) ) 0 ) ( = ( * Nl18arg61 lam4n8 ) 0 ) ( = ( * Nl18arg71 lam4n8 ) 0 ) ( = ( * Nl18arg81 lam4n8 ) 0 ) ( = ( * Nl18arg91 lam4n8 ) 0 ) ( = ( + ( * 1 lam4n1 ) ( * ( - 1 ) lam4n6 ) ) 0 ) ) ( and ( >= lam16n0 0 ) ( >= lam16n1 0 ) ( >= lam16n2 0 ) ( >= lam16n3 0 ) ( >= lam16n4 0 ) ( >= lam16n5 0 ) ( >= lam16n6 0 ) ( >= lam16n7 0 ) ( >= lam16n8 0 ) ( > ( + ( * 1 lam16n0 ) ( * 2 lam16n4 ) ( * 3 lam16n5 ) ( * 3 lam16n6 ) ( * 95 lam16n7 ) ( * Nl18CT1 lam16n8 ) ( - 1 ( - ( + ( + ( + ( + ( + ( + ( + ( + RFN1_CT ( * RFN1_arg1 0 ) ) ( * RFN1_arg3 1 ) ) ( * RFN1_arg4 0 ) ) ( * RFN1_arg5 0 ) ) ( * RFN1_arg6 0 ) ) ( * RFN1_arg7 0 ) ) ( * RFN1_arg8 0 ) ) ( * RFN1_arg9 0 ) ) RFN1_CT ) ) ) 0 ) ( = ( + ( * ( - 1 ) lam16n0 ) ( * ( - 1 ) lam16n1 ) ( * ( - 1 ) lam16n5 ) ( * Nl18arg11 lam16n8 ) ( - ( - RFN1_arg1 ) ) ) 0 ) ( = ( + ( * ( - 1 ) lam16n2 ) ( * 1 lam16n4 ) ( * Nl18arg21 lam16n8 ) ( - ( - ( + 0 RFN1_arg2 ) RFN1_arg2 ) ) ) 0 ) ( = ( + ( * 1 lam16n2 ) ( * Nl18arg31 lam16n8 ) ( - ( - ( + 0 ( * RFN1_arg3 1 ) ) RFN1_arg3 ) ) ) 0 ) ( = ( + ( * ( - 1 ) lam16n3 ) ( * Nl18arg41 lam16n8 ) ( - ( - RFN1_arg4 ) ) ) 0 ) ( = ( + ( * ( - 1 ) lam16n0 ) ( * ( - 1 ) lam16n2 ) ( * 1 lam16n3 ) ( * ( - 1 ) lam16n4 ) ( * ( - 1 ) lam16n7 ) ( * Nl18arg51 lam16n8 ) ( - ( - ( + 0 ( * RFN1_arg4 1 ) ) RFN1_arg5 ) ) ) 0 ) ( = ( + ( * Nl18arg61 lam16n8 ) ( - ( - RFN1_arg6 ) ) ) 0 ) ( = ( + ( * Nl18arg71 lam16n8 ) ( - ( - RFN1_arg7 ) ) ) 0 ) ( = ( + ( * Nl18arg81 lam16n8 ) ( - ( - RFN1_arg8 ) ) ) 0 ) ( = ( + ( * Nl18arg91 lam16n8 ) ( - ( - RFN1_arg9 ) ) ) 0 ) ( = ( + ( * 1 lam16n1 ) ( * ( - 1 ) lam16n6 ) ( - ( + 0 ( * RFN1_arg1 1 ) ) ) ) 0 ) ( = ( - ( + 0 ( * RFN1_arg5 1 ) ) ) 0 ) ( = ( - ( + 0 ( * RFN1_arg6 1 ) ) ) 0 ) ( = ( - ( + 0 ( * RFN1_arg7 1 ) ) ) 0 ) ( = ( - ( + 0 ( * RFN1_arg8 1 ) ) ) 0 ) ( = ( - ( + 0 ( * RFN1_arg9 1 ) ) ) 0 ) ) ) ( or ( and ( >= lam6n0 0 ) ( >= lam6n1 0 ) ( >= lam6n2 0 ) ( >= lam6n3 0 ) ( >= lam6n4 0 ) ( >= lam6n5 0 ) ( >= lam6n6 0 ) ( >= lam6n7 0 ) ( >= lam6n8 0 ) ( >= lam6n9 0 ) ( >= lam6n10 0 ) ( >= lam6n11 0 ) ( >= lam6n12 0 ) ( >= lam6n13 0 ) ( >= lam6n14 0 ) ( > ( + ( * 1 lam6n0 ) ( * 1 lam6n1 ) ( * 1 lam6n2 ) ( * 1 lam6n3 ) ( * 1 lam6n4 ) ( * 2 lam6n10 ) ( * 3 lam6n11 ) ( * 3 lam6n12 ) ( * 95 lam6n13 ) ( * Nl18CT1 lam6n14 ) ( - 1 ) ) 0 ) ( = ( + ( * ( - 1 ) lam6n0 ) ( * ( - 1 ) lam6n5 ) ( * ( - 1 ) lam6n11 ) ( * Nl18arg11 lam6n14 ) ) 0 ) ( = ( + ( * ( - 1 ) lam6n6 ) ( * 1 lam6n10 ) ( * Nl18arg21 lam6n14 ) ) 0 ) ( = ( + ( * 1 lam6n1 ) ( * 1 lam6n2 ) ( * 1 lam6n6 ) ( * Nl18arg31 lam6n14 ) ) 0 ) ( = ( + ( * 1 lam6n3 ) ( * 1 lam6n4 ) ( * Nl18arg41 lam6n14 ) ) 0 ) ( = ( + ( * ( - 1 ) lam6n0 ) ( * ( - 1 ) lam6n3 ) ( * ( - 1 ) lam6n6 ) ( * ( - 1 ) lam6n10 ) ( * ( - 1 ) lam6n13 ) ( * Nl18arg51 lam6n14 ) ) 0 ) ( = ( * Nl18arg61 lam6n14 ) 0 ) ( = ( * Nl18arg71 lam6n14 ) 0 ) ( = ( * Nl18arg81 lam6n14 ) 0 ) ( = ( * Nl18arg91 lam6n14 ) 0 ) ( = ( + ( * 1 lam6n5 ) ( * ( - 1 ) lam6n12 ) ) 0 ) ( = ( + ( * ( - 1 ) lam6n1 ) ( * ( - 1 ) lam6n7 ) ) 0 ) ( = ( + ( * ( - 1 ) lam6n4 ) ( * ( - 1 ) lam6n8 ) ) 0 ) ( = ( + ( * ( - 1 ) lam6n2 ) ( * ( - 1 ) lam6n9 ) ) 0 ) ) ( and ( >= lam19n0 0 ) ( >= lam19n1 0 ) ( >= lam19n2 0 ) ( >= lam19n3 0 ) ( >= lam19n4 0 ) ( >= lam19n5 0 ) ( >= lam19n6 0 ) ( >= lam19n7 0 ) ( >= lam19n8 0 ) ( >= lam19n9 0 ) ( >= lam19n10 0 ) ( >= lam19n11 0 ) ( >= lam19n12 0 ) ( >= lam19n13 0 ) ( >= lam19n14 0 ) ( > ( + ( * 1 lam19n0 ) ( * 1 lam19n1 ) ( * 1 lam19n2 ) ( * 1 lam19n3 ) ( * 1 lam19n4 ) ( * 2 lam19n10 ) ( * 3 lam19n11 ) ( * 3 lam19n12 ) ( * 95 lam19n13 ) ( * Nl18CT1 lam19n14 ) ( - 1 ( - ( + ( + ( + ( + ( + ( + RFN1_CT ( * RFN1_arg1 0 ) ) ( * RFN1_arg4 1 ) ) ( * RFN1_arg6 0 ) ) ( * RFN1_arg7 0 ) ) ( * RFN1_arg8 0 ) ) ( * RFN1_arg9 0 ) ) RFN1_CT ) ) ) 0 ) ( = ( + ( * ( - 1 ) lam19n0 ) ( * ( - 1 ) lam19n5 ) ( * ( - 1 ) lam19n11 ) ( * Nl18arg11 lam19n14 ) ( - ( - RFN1_arg1 ) ) ) 0 ) ( = ( + ( * ( - 1 ) lam19n6 ) ( * 1 lam19n10 ) ( * Nl18arg21 lam19n14 ) ( - ( - ( + 0 RFN1_arg2 ) RFN1_arg2 ) ) ) 0 ) ( = ( + ( * 1 lam19n1 ) ( * 1 lam19n2 ) ( * 1 lam19n6 ) ( * Nl18arg31 lam19n14 ) ( - ( - ( + 0 RFN1_arg3 ) RFN1_arg3 ) ) ) 0 ) ( = ( + ( * 1 lam19n3 ) ( * 1 lam19n4 ) ( * Nl18arg41 lam19n14 ) ( - ( - ( + 0 ( * RFN1_arg4 1 ) ) RFN1_arg4 ) ) ) 0 ) ( = ( + ( * ( - 1 ) lam19n0 ) ( * ( - 1 ) lam19n3 ) ( * ( - 1 ) lam19n6 ) ( * ( - 1 ) lam19n10 ) ( * ( - 1 ) lam19n13 ) ( * Nl18arg51 lam19n14 ) ( - ( - ( + 0 RFN1_arg5 ) RFN1_arg5 ) ) ) 0 ) ( = ( + ( * Nl18arg61 lam19n14 ) ( - ( - RFN1_arg6 ) ) ) 0 ) ( = ( + ( * Nl18arg71 lam19n14 ) ( - ( - RFN1_arg7 ) ) ) 0 ) ( = ( + ( * Nl18arg81 lam19n14 ) ( - ( - RFN1_arg8 ) ) ) 0 ) ( = ( + ( * Nl18arg91 lam19n14 ) ( - ( - RFN1_arg9 ) ) ) 0 ) ( = ( + ( * 1 lam19n5 ) ( * ( - 1 ) lam19n12 ) ( - ( + 0 ( * RFN1_arg1 1 ) ) ) ) 0 ) ( = ( - ( + 0 ( * RFN1_arg6 1 ) ) ) 0 ) ( = ( - ( + 0 ( * RFN1_arg7 1 ) ) ) 0 ) ( = ( - ( + 0 ( * RFN1_arg8 1 ) ) ) 0 ) ( = ( - ( + 0 ( * RFN1_arg9 1 ) ) ) 0 ) ( = ( + ( * ( - 1 ) lam19n1 ) ( * ( - 1 ) lam19n7 ) ) 0 ) ( = ( + ( * ( - 1 ) lam19n4 ) ( * ( - 1 ) lam19n8 ) ) 0 ) ( = ( + ( * ( - 1 ) lam19n2 ) ( * ( - 1 ) lam19n9 ) ) 0 ) ) ) ))
(assert ( and ( and ( and ( >= lam11n0 0 ) ( >= lam11n1 0 ) ( >= lam11n2 0 ) ( >= lam11n3 0 ) ( >= lam11n4 0 ) ( >= lam11n5 0 ) ( >= lam11n6 0 ) ( >= lam11n7 0 ) ( >= lam11n8 0 ) ( >= lam11n9 0 ) ( >= lam11n10 0 ) ( > ( + ( * 1 lam11n0 ) ( * 1 lam11n1 ) ( * ( - 1 ) lam11n2 ) ( * ( - 1 ) lam11n3 ) ( * 2 lam11n6 ) ( * 3 lam11n7 ) ( * 3 lam11n8 ) ( * 95 lam11n9 ) ( * Nl17CT1 lam11n10 ) ( - 1 ( - RFN1_CT ) ) ) 0 ) ( = ( + ( * ( - 1 ) lam11n2 ) ( * ( - 1 ) lam11n4 ) ( * ( - 1 ) lam11n7 ) ( * Nl17arg11 lam11n10 ) ( - ( - RFN1_arg1 ) ) ) 0 ) ( = ( + ( * 1 lam11n2 ) ( * ( - 1 ) lam11n3 ) ( * 1 lam11n6 ) ( * Nl17arg21 lam11n10 ) ( - ( - RFN1_arg2 ) ) ) 0 ) ( = ( + ( * 1 lam11n0 ) ( * 1 lam11n1 ) ( * 1 lam11n3 ) ( * Nl17arg31 lam11n10 ) ( - ( - RFN1_arg3 ) ) ) 0 ) ( = ( + ( * ( - 1 ) lam11n0 ) ( * ( - 1 ) lam11n2 ) ( * ( - 1 ) lam11n3 ) ( * ( - 1 ) lam11n6 ) ( * ( - 1 ) lam11n9 ) ( * Nl17arg41 lam11n10 ) ( - ( - RFN1_arg4 ) ) ) 0 ) ( = ( + ( * Nl17arg51 lam11n10 ) ( - ( - RFN1_arg5 ) ) ) 0 ) ( = ( + ( * Nl17arg61 lam11n10 ) ( - ( - RFN1_arg6 ) ) ) 0 ) ( = ( + ( * Nl17arg71 lam11n10 ) ( - ( - RFN1_arg7 ) ) ) 0 ) ( = ( + ( * Nl17arg81 lam11n10 ) ( - ( - RFN1_arg8 ) ) ) 0 ) ( = ( + ( * Nl17arg91 lam11n10 ) ( - ( - RFN1_arg9 ) ) ) 0 ) ( = ( + ( * 1 lam11n4 ) ( * ( - 1 ) lam11n8 ) ) 0 ) ( = ( + ( * ( - 1 ) lam11n1 ) ( * ( - 1 ) lam11n5 ) ) 0 ) ) ( and ( >= lam12n0 0 ) ( >= lam12n1 0 ) ( >= lam12n2 0 ) ( >= lam12n3 0 ) ( >= lam12n4 0 ) ( >= lam12n5 0 ) ( >= lam12n6 0 ) ( >= lam12n7 0 ) ( >= lam12n8 0 ) ( >= lam12n9 0 ) ( >= lam12n10 0 ) ( > ( + ( * 1 lam12n0 ) ( * 1 lam12n1 ) ( * ( - 1 ) lam12n2 ) ( * ( - 1 ) lam12n3 ) ( * 2 lam12n6 ) ( * 3 lam12n7 ) ( * 3 lam12n8 ) ( * 95 lam12n9 ) ( * Nl17CT1 lam12n10 ) ( - 1 ( + ( - ( + ( + ( + ( + ( + ( + ( + RFN1_CT ( * RFN1_arg1 0 ) ) ( * RFN1_arg4 0 ) ) ( * RFN1_arg5 0 ) ) ( * RFN1_arg6 0 ) ) ( * RFN1_arg7 0 ) ) ( * RFN1_arg8 0 ) ) ( * RFN1_arg9 0 ) ) RFN1_CT ) 1 ) ) ) 0 ) ( = ( + ( * ( - 1 ) lam12n2 ) ( * ( - 1 ) lam12n4 ) ( * ( - 1 ) lam12n7 ) ( * Nl17arg11 lam12n10 ) ( - ( - RFN1_arg1 ) ) ) 0 ) ( = ( + ( * 1 lam12n2 ) ( * ( - 1 ) lam12n3 ) ( * 1 lam12n6 ) ( * Nl17arg21 lam12n10 ) ( - ( - ( + 0 RFN1_arg2 ) RFN1_arg2 ) ) ) 0 ) ( = ( + ( * 1 lam12n0 ) ( * 1 lam12n1 ) ( * 1 lam12n3 ) ( * Nl17arg31 lam12n10 ) ( - ( - ( + 0 RFN1_arg3 ) RFN1_arg3 ) ) ) 0 ) ( = ( + ( * ( - 1 ) lam12n0 ) ( * ( - 1 ) lam12n2 ) ( * ( - 1 ) lam12n3 ) ( * ( - 1 ) lam12n6 ) ( * ( - 1 ) lam12n9 ) ( * Nl17arg41 lam12n10 ) ( - ( - ( + 0 ( * RFN1_arg5 1 ) ) RFN1_arg4 ) ) ) 0 ) ( = ( + ( * Nl17arg51 lam12n10 ) ( - ( - RFN1_arg5 ) ) ) 0 ) ( = ( + ( * Nl17arg61 lam12n10 ) ( - ( - RFN1_arg6 ) ) ) 0 ) ( = ( + ( * Nl17arg71 lam12n10 ) ( - ( - RFN1_arg7 ) ) ) 0 ) ( = ( + ( * Nl17arg81 lam12n10 ) ( - ( - RFN1_arg8 ) ) ) 0 ) ( = ( + ( * Nl17arg91 lam12n10 ) ( - ( - RFN1_arg9 ) ) ) 0 ) ( = ( + ( * 1 lam12n4 ) ( * ( - 1 ) lam12n8 ) ( - ( + 0 ( * RFN1_arg1 1 ) ) ) ) 0 ) ( = ( - ( + 0 ( * RFN1_arg6 1 ) ) ) 0 ) ( = ( - ( + 0 ( * RFN1_arg7 1 ) ) ) 0 ) ( = ( - ( + 0 ( * RFN1_arg8 1 ) ) ) 0 ) ( = ( - ( + 0 ( * RFN1_arg9 1 ) ) ) 0 ) ( = ( + ( * ( - 1 ) lam12n1 ) ( * ( - 1 ) lam12n5 ) ) 0 ) ) ) ( and ( >= lam20n0 0 ) ( >= lam20n1 0 ) ( >= lam20n2 0 ) ( >= lam20n3 0 ) ( >= lam20n4 0 ) ( >= lam20n5 0 ) ( >= lam20n6 0 ) ( >= lam20n7 0 ) ( >= lam20n8 0 ) ( >= lam20n9 0 ) ( >= lam20n10 0 ) ( > ( + ( * 1 lam20n0 ) ( * 1 lam20n1 ) ( * ( - 1 ) lam20n2 ) ( * ( - 1 ) lam20n3 ) ( * 2 lam20n6 ) ( * 3 lam20n7 ) ( * 3 lam20n8 ) ( * 95 lam20n9 ) ( * ( + ( - Nl17CT1 ) 1 ) lam20n10 ) ( - 1 ) ) 0 ) ( = ( + ( * ( - 1 ) lam20n2 ) ( * ( - 1 ) lam20n4 ) ( * ( - 1 ) lam20n7 ) ( * ( - Nl17arg11 ) lam20n10 ) ) 0 ) ( = ( + ( * 1 lam20n2 ) ( * ( - 1 ) lam20n3 ) ( * 1 lam20n6 ) ( * ( - Nl17arg21 ) lam20n10 ) ) 0 ) ( = ( + ( * 1 lam20n0 ) ( * 1 lam20n1 ) ( * 1 lam20n3 ) ( * ( - Nl17arg31 ) lam20n10 ) ) 0 ) ( = ( + ( * ( - 1 ) lam20n0 ) ( * ( - 1 ) lam20n2 ) ( * ( - 1 ) lam20n3 ) ( * ( - 1 ) lam20n6 ) ( * ( - 1 ) lam20n9 ) ( * ( - Nl17arg41 ) lam20n10 ) ) 0 ) ( = ( * ( - Nl17arg51 ) lam20n10 ) 0 ) ( = ( * ( - Nl17arg61 ) lam20n10 ) 0 ) ( = ( * ( - Nl17arg71 ) lam20n10 ) 0 ) ( = ( * ( - Nl17arg81 ) lam20n10 ) 0 ) ( = ( * ( - Nl17arg91 ) lam20n10 ) 0 ) ( = ( + ( * 1 lam20n4 ) ( * ( - 1 ) lam20n8 ) ) 0 ) ( = ( + ( * ( - 1 ) lam20n1 ) ( * ( - 1 ) lam20n5 ) ) 0 ) ) ))
(check-sat)
(exit)
